
Gurobi 11.0.0 (linux64, gurobi_cl) logging started Tue Oct 28 14:39:02 2025

Set parameter LogFile to value "gurobi.log"
Using license file /trinity/home/thomgeo/.conda/envs/pypsa-training/bin/../lib/gurobi.lic
Restricted license - for non-production use only - expires 2025-11-24

Gurobi 11.0.0 (linux64, gurobi_cl) logging started Tue Oct 28 14:39:02 2025

Set parameter LogFile to value "gurobi.log"
Using license file /trinity/home/thomgeo/.conda/envs/pypsa-training/bin/../lib/gurobi.lic
Restricted license - for non-production use only - expires 2025-11-24

Gurobi 11.0.0 (linux64, gurobi_cl) logging started Tue Oct 28 14:40:26 2025

Set parameter LogFile to value "gurobi.log"
Using license file /trinity/home/thomgeo/.conda/envs/pypsa-training/bin/../lib/gurobi.lic
Restricted license - for non-production use only - expires 2025-11-24

Gurobi 11.0.0 (linux64, gurobi_cl) logging started Tue Oct 28 14:40:35 2025

Set parameter LogFile to value "gurobi.log"
Using license file /trinity/home/thomgeo/.conda/envs/pypsa-training/bin/../lib/gurobi.lic
Restricted license - for non-production use only - expires 2025-11-24

Gurobi 11.0.0 (linux64, gurobi_cl) logging started Tue Oct 28 14:40:38 2025

Set parameter LogFile to value "gurobi.log"
Using license file /trinity/home/thomgeo/.conda/envs/pypsa-training/bin/../lib/gurobi.lic
Restricted license - for non-production use only - expires 2025-11-24

Gurobi 11.0.0 (linux64, gurobi_cl) logging started Tue Oct 28 14:40:41 2025

Set parameter LogFile to value "gurobi.log"
Using license file /trinity/home/thomgeo/.conda/envs/pypsa-training/bin/../lib/gurobi.lic
Restricted license - for non-production use only - expires 2025-11-24

Gurobi 11.0.0 (linux64, gurobi_cl) logging started Tue Oct 28 14:40:42 2025

Set parameter LogFile to value "gurobi.log"
Using license file /trinity/home/thomgeo/.conda/envs/pypsa-training/bin/../lib/gurobi.lic
Restricted license - for non-production use only - expires 2025-11-24

Gurobi 11.0.0 (linux64, gurobi_cl) logging started Tue Oct 28 14:41:52 2025

Set parameter LogFile to value "gurobi.log"
Using license file /trinity/home/thomgeo/.conda/envs/pypsa-training/bin/../lib/gurobi.lic
Restricted license - for non-production use only - expires 2025-11-24

Gurobi 11.0.0 (linux64, gurobi_cl) logging started Tue Oct 28 14:41:52 2025

Set parameter LogFile to value "gurobi.log"
Using license file /trinity/home/thomgeo/.conda/envs/pypsa-training/bin/../lib/gurobi.lic
Restricted license - for non-production use only - expires 2025-11-24

Gurobi 11.0.0 (linux64, gurobi_cl) logging started Tue Oct 28 14:41:53 2025

Set parameter LogFile to value "gurobi.log"
Using license file /trinity/home/thomgeo/.conda/envs/pypsa-training/bin/../lib/gurobi.lic
Restricted license - for non-production use only - expires 2025-11-24

Gurobi 11.0.0 (linux64, gurobi_cl) logging started Tue Oct 28 14:43:14 2025

Set parameter LogFile to value "gurobi.log"
Using license file /trinity/home/thomgeo/.conda/envs/pypsa-training/bin/../lib/gurobi.lic
Restricted license - for non-production use only - expires 2025-11-24

Gurobi 11.0.0 (linux64, gurobi_cl) logging started Tue Oct 28 15:38:32 2025

Set parameter LogFile to value "gurobi.log"
Using license file /trinity/home/thomgeo/.conda/envs/pypsa-training/bin/../lib/gurobi.lic
Restricted license - for non-production use only - expires 2025-11-24

Gurobi 11.0.0 (linux64, gurobi_cl) logging started Tue Oct 28 15:38:56 2025

Set parameter LogFile to value "gurobi.log"
Using license file /trinity/home/thomgeo/.conda/envs/pypsa-training/bin/../lib/gurobi.lic
Restricted license - for non-production use only - expires 2025-11-24

Gurobi 11.0.0 (linux64, gurobi_cl) logging started Tue Oct 28 17:26:55 2025

Set parameter LogFile to value "gurobi.log"
Using license file /trinity/home/thomgeo/.conda/envs/pypsa-training/bin/../lib/gurobi.lic
Restricted license - for non-production use only - expires 2025-11-24

Gurobi 11.0.0 (linux64, gurobi_cl) logging started Tue Oct 28 17:26:55 2025

Set parameter LogFile to value "gurobi.log"
Using license file /trinity/home/thomgeo/.conda/envs/pypsa-training/bin/../lib/gurobi.lic
Restricted license - for non-production use only - expires 2025-11-24

Gurobi 11.0.0 (linux64, gurobi_cl) logging started Wed Oct 29 13:52:11 2025

Set parameter LogFile to value "gurobi.log"
Using license file /trinity/home/thomgeo/.conda/envs/pypsa-training/bin/../lib/gurobi.lic
Restricted license - for non-production use only - expires 2025-11-24

Gurobi 11.0.0 (linux64, gurobi_cl) logging started Wed Oct 29 13:52:11 2025

Set parameter LogFile to value "gurobi.log"
Using license file /trinity/home/thomgeo/.conda/envs/pypsa-training/bin/../lib/gurobi.lic
Restricted license - for non-production use only - expires 2025-11-24

Gurobi 11.0.0 (linux64, gurobi_cl) logging started Wed Oct 29 13:52:16 2025

Set parameter LogFile to value "gurobi.log"
Using license file /trinity/home/thomgeo/.conda/envs/pypsa-training/bin/../lib/gurobi.lic
Restricted license - for non-production use only - expires 2025-11-24

Gurobi 11.0.0 (linux64, gurobi_cl) logging started Wed Oct 29 13:52:16 2025

Set parameter LogFile to value "gurobi.log"
Using license file /trinity/home/thomgeo/.conda/envs/pypsa-training/bin/../lib/gurobi.lic
Restricted license - for non-production use only - expires 2025-11-24

Gurobi 11.0.0 (linux64, gurobi_cl) logging started Wed Oct 29 13:53:55 2025

Set parameter LogFile to value "gurobi.log"
Using license file /trinity/home/thomgeo/.conda/envs/pypsa-training/bin/../lib/gurobi.lic
Restricted license - for non-production use only - expires 2025-11-24

Gurobi 11.0.0 (linux64, gurobi_cl) logging started Wed Oct 29 13:54:21 2025

Set parameter LogFile to value "gurobi.log"
Using license file /trinity/home/thomgeo/.conda/envs/pypsa-training/bin/../lib/gurobi.lic
Restricted license - for non-production use only - expires 2025-11-24

Gurobi 11.0.0 (linux64, gurobi_cl) logging started Thu Oct 30 09:27:31 2025

Set parameter LogFile to value "gurobi.log"
Using license file /trinity/home/thomgeo/.conda/envs/pypsa-training/bin/../lib/gurobi.lic
Restricted license - for non-production use only - expires 2025-11-24

Gurobi 11.0.0 (linux64, gurobi_cl) logging started Thu Oct 30 09:27:41 2025

Set parameter LogFile to value "gurobi.log"
Using license file /trinity/home/thomgeo/.conda/envs/pypsa-training/bin/../lib/gurobi.lic
Restricted license - for non-production use only - expires 2025-11-24

Gurobi 11.0.0 (linux64, gurobi_cl) logging started Thu Oct 30 10:33:39 2025

Set parameter LogFile to value "gurobi.log"
Using license file /trinity/home/thomgeo/.conda/envs/pypsa-training/bin/../lib/gurobi.lic
Restricted license - for non-production use only - expires 2025-11-24

Gurobi 11.0.0 (linux64, gurobi_cl) logging started Thu Oct 30 13:46:48 2025

Set parameter LogFile to value "gurobi.log"
Using license file /trinity/home/thomgeo/.conda/envs/pypsa-training/bin/../lib/gurobi.lic
Restricted license - for non-production use only - expires 2025-11-24

Gurobi 11.0.0 (linux64, gurobi_cl) logging started Thu Oct 30 13:47:02 2025

Set parameter LogFile to value "gurobi.log"
Using license file /trinity/home/thomgeo/.conda/envs/pypsa-training/bin/../lib/gurobi.lic
Restricted license - for non-production use only - expires 2025-11-24

Gurobi 11.0.0 (linux64, gurobi_cl) logging started Thu Oct 30 13:47:04 2025

Set parameter LogFile to value "gurobi.log"
Using license file /trinity/home/thomgeo/.conda/envs/pypsa-training/bin/../lib/gurobi.lic
Restricted license - for non-production use only - expires 2025-11-24

Gurobi 11.0.0 (linux64, gurobi_cl) logging started Thu Oct 30 15:46:03 2025

Set parameter LogFile to value "gurobi.log"
Using license file /trinity/home/thomgeo/.conda/envs/pypsa-training/bin/../lib/gurobi.lic
Restricted license - for non-production use only - expires 2025-11-24

Gurobi 11.0.0 (linux64, gurobi_cl) logging started Fri Oct 31 09:05:33 2025

Set parameter LogFile to value "gurobi.log"
Using license file /trinity/home/thomgeo/.conda/envs/pypsa-training/bin/../lib/gurobi.lic
Restricted license - for non-production use only - expires 2025-11-24

Gurobi 11.0.0 (linux64, gurobi_cl) logging started Fri Oct 31 09:05:33 2025

Set parameter LogFile to value "gurobi.log"
Using license file /trinity/home/thomgeo/.conda/envs/pypsa-training/bin/../lib/gurobi.lic
Restricted license - for non-production use only - expires 2025-11-24

Gurobi 11.0.0 (linux64, gurobi_cl) logging started Fri Oct 31 09:05:35 2025

Set parameter LogFile to value "gurobi.log"
Using license file /trinity/home/thomgeo/.conda/envs/pypsa-training/bin/../lib/gurobi.lic
Restricted license - for non-production use only - expires 2025-11-24

Gurobi 11.0.0 (linux64, gurobi_cl) logging started Fri Oct 31 09:24:46 2025

Set parameter LogFile to value "gurobi.log"
Using license file /trinity/home/thomgeo/.conda/envs/pypsa-training/bin/../lib/gurobi.lic
Restricted license - for non-production use only - expires 2025-11-24

Gurobi 11.0.0 (linux64, gurobi_cl) logging started Fri Oct 31 09:24:46 2025

Set parameter LogFile to value "gurobi.log"
Using license file /trinity/home/thomgeo/.conda/envs/pypsa-training/bin/../lib/gurobi.lic
Restricted license - for non-production use only - expires 2025-11-24

Gurobi 11.0.0 (linux64, gurobi_cl) logging started Fri Oct 31 09:24:48 2025

Set parameter LogFile to value "gurobi.log"
Using license file /trinity/home/thomgeo/.conda/envs/pypsa-training/bin/../lib/gurobi.lic
Restricted license - for non-production use only - expires 2025-11-24

Gurobi 11.0.0 (linux64, gurobi_cl) logging started Fri Oct 31 09:27:32 2025

Set parameter LogFile to value "gurobi.log"
Using license file /trinity/home/thomgeo/.conda/envs/pypsa-training/bin/../lib/gurobi.lic
Restricted license - for non-production use only - expires 2025-11-24

Gurobi 11.0.0 (linux64, gurobi_cl) logging started Fri Oct 31 09:27:32 2025

Set parameter LogFile to value "gurobi.log"
Using license file /trinity/home/thomgeo/.conda/envs/pypsa-training/bin/../lib/gurobi.lic
Restricted license - for non-production use only - expires 2025-11-24

Gurobi 11.0.0 (linux64, gurobi_cl) logging started Fri Oct 31 09:28:32 2025

Set parameter LogFile to value "gurobi.log"
Using license file /trinity/home/thomgeo/.conda/envs/pypsa-training/bin/../lib/gurobi.lic
Restricted license - for non-production use only - expires 2025-11-24

Gurobi 11.0.0 (linux64, gurobi_cl) logging started Fri Oct 31 09:28:32 2025

Set parameter LogFile to value "gurobi.log"
Using license file /trinity/home/thomgeo/.conda/envs/pypsa-training/bin/../lib/gurobi.lic
Restricted license - for non-production use only - expires 2025-11-24

Gurobi 11.0.0 (linux64, gurobi_cl) logging started Fri Oct 31 09:28:34 2025

Set parameter LogFile to value "gurobi.log"
Using license file /trinity/home/thomgeo/.conda/envs/pypsa-training/bin/../lib/gurobi.lic
Restricted license - for non-production use only - expires 2025-11-24

Gurobi 11.0.0 (linux64, gurobi_cl) logging started Fri Oct 31 09:52:59 2025

Set parameter LogFile to value "gurobi.log"
Using license file /trinity/home/thomgeo/.conda/envs/pypsa-training/bin/../lib/gurobi.lic
Restricted license - for non-production use only - expires 2025-11-24

Gurobi 11.0.0 (linux64, gurobi_cl) logging started Fri Oct 31 09:52:59 2025

Set parameter LogFile to value "gurobi.log"
Using license file /trinity/home/thomgeo/.conda/envs/pypsa-training/bin/../lib/gurobi.lic
Restricted license - for non-production use only - expires 2025-11-24

Gurobi 11.0.0 (linux64, gurobi_cl) logging started Fri Oct 31 09:53:24 2025

Set parameter LogFile to value "gurobi.log"
Using license file /trinity/home/thomgeo/.conda/envs/pypsa-training/bin/../lib/gurobi.lic
Restricted license - for non-production use only - expires 2025-11-24

Gurobi 11.0.0 (linux64, gurobi_cl) logging started Fri Oct 31 09:53:24 2025

Set parameter LogFile to value "gurobi.log"
Using license file /trinity/home/thomgeo/.conda/envs/pypsa-training/bin/../lib/gurobi.lic
Restricted license - for non-production use only - expires 2025-11-24

Gurobi 11.0.0 (linux64, gurobi_cl) logging started Fri Oct 31 09:53:31 2025

Set parameter LogFile to value "gurobi.log"
Using license file /trinity/home/thomgeo/.conda/envs/pypsa-training/bin/../lib/gurobi.lic
Restricted license - for non-production use only - expires 2025-11-24

Gurobi 11.0.0 (linux64, gurobi_cl) logging started Fri Oct 31 10:48:03 2025

Set parameter LogFile to value "gurobi.log"
Using license file /trinity/home/thomgeo/.conda/envs/pypsa-training/bin/../lib/gurobi.lic
Restricted license - for non-production use only - expires 2025-11-24

Gurobi 11.0.0 (linux64, gurobi_cl) logging started Fri Oct 31 10:48:03 2025

Set parameter LogFile to value "gurobi.log"
Using license file /trinity/home/thomgeo/.conda/envs/pypsa-training/bin/../lib/gurobi.lic
Restricted license - for non-production use only - expires 2025-11-24

Gurobi 11.0.0 (linux64, gurobi_cl) logging started Fri Oct 31 10:48:17 2025

Set parameter LogFile to value "gurobi.log"
Using license file /trinity/home/thomgeo/.conda/envs/pypsa-training/bin/../lib/gurobi.lic
Restricted license - for non-production use only - expires 2025-11-24

Gurobi 11.0.0 (linux64, gurobi_cl) logging started Fri Oct 31 10:52:58 2025

Set parameter LogFile to value "gurobi.log"
Using license file /trinity/home/thomgeo/.conda/envs/pypsa-training/bin/../lib/gurobi.lic
Restricted license - for non-production use only - expires 2025-11-24

Gurobi 11.0.0 (linux64, gurobi_cl) logging started Fri Oct 31 10:52:58 2025

Set parameter LogFile to value "gurobi.log"
Using license file /trinity/home/thomgeo/.conda/envs/pypsa-training/bin/../lib/gurobi.lic
Restricted license - for non-production use only - expires 2025-11-24

Gurobi 11.0.0 (linux64, gurobi_cl) logging started Fri Oct 31 10:53:29 2025

Set parameter LogFile to value "gurobi.log"
Using license file /trinity/home/thomgeo/.conda/envs/pypsa-training/bin/../lib/gurobi.lic
Restricted license - for non-production use only - expires 2025-11-24

Gurobi 11.0.0 (linux64, gurobi_cl) logging started Fri Oct 31 10:53:29 2025

Set parameter LogFile to value "gurobi.log"
Using license file /trinity/home/thomgeo/.conda/envs/pypsa-training/bin/../lib/gurobi.lic
Restricted license - for non-production use only - expires 2025-11-24

Gurobi 11.0.0 (linux64, gurobi_cl) logging started Fri Oct 31 10:53:45 2025

Set parameter LogFile to value "gurobi.log"
Using license file /trinity/home/thomgeo/.conda/envs/pypsa-training/bin/../lib/gurobi.lic
Restricted license - for non-production use only - expires 2025-11-24

Gurobi 11.0.0 (linux64, gurobi_cl) logging started Fri Oct 31 10:53:55 2025

Set parameter LogFile to value "gurobi.log"
Using license file /trinity/home/thomgeo/.conda/envs/pypsa-training/bin/../lib/gurobi.lic
Restricted license - for non-production use only - expires 2025-11-24

Gurobi 11.0.0 (linux64, gurobi_cl) logging started Fri Oct 31 11:02:09 2025

Set parameter LogFile to value "gurobi.log"
Using license file /trinity/home/thomgeo/.conda/envs/pypsa-training/bin/../lib/gurobi.lic
Restricted license - for non-production use only - expires 2025-11-24

Gurobi 11.0.0 (linux64, gurobi_cl) logging started Fri Oct 31 11:02:09 2025

Set parameter LogFile to value "gurobi.log"
Using license file /trinity/home/thomgeo/.conda/envs/pypsa-training/bin/../lib/gurobi.lic
Restricted license - for non-production use only - expires 2025-11-24

Gurobi 11.0.0 (linux64, gurobi_cl) logging started Fri Oct 31 11:02:31 2025

Set parameter LogFile to value "gurobi.log"
Using license file /trinity/home/thomgeo/.conda/envs/pypsa-training/bin/../lib/gurobi.lic
Restricted license - for non-production use only - expires 2025-11-24

Gurobi 11.0.0 (linux64, gurobi_cl) logging started Fri Oct 31 11:02:31 2025

Set parameter LogFile to value "gurobi.log"
Using license file /trinity/home/thomgeo/.conda/envs/pypsa-training/bin/../lib/gurobi.lic
Restricted license - for non-production use only - expires 2025-11-24

Gurobi 11.0.0 (linux64, gurobi_cl) logging started Fri Oct 31 11:02:47 2025

Set parameter LogFile to value "gurobi.log"
Using license file /trinity/home/thomgeo/.conda/envs/pypsa-training/bin/../lib/gurobi.lic
Restricted license - for non-production use only - expires 2025-11-24

Gurobi 11.0.0 (linux64, gurobi_cl) logging started Fri Oct 31 11:30:33 2025

Set parameter LogFile to value "gurobi.log"
Using license file /trinity/home/thomgeo/.conda/envs/pypsa-training/bin/../lib/gurobi.lic
Restricted license - for non-production use only - expires 2025-11-24

Gurobi 11.0.0 (linux64, gurobi_cl) logging started Fri Oct 31 11:30:33 2025

Set parameter LogFile to value "gurobi.log"
Using license file /trinity/home/thomgeo/.conda/envs/pypsa-training/bin/../lib/gurobi.lic
Restricted license - for non-production use only - expires 2025-11-24

Gurobi 11.0.0 (linux64, gurobi_cl) logging started Fri Oct 31 11:31:13 2025

Set parameter LogFile to value "gurobi.log"
Using license file /trinity/home/thomgeo/.conda/envs/pypsa-training/bin/../lib/gurobi.lic
Restricted license - for non-production use only - expires 2025-11-24

Gurobi 11.0.0 (linux64, gurobi_cl) logging started Fri Oct 31 11:31:13 2025

Set parameter LogFile to value "gurobi.log"
Using license file /trinity/home/thomgeo/.conda/envs/pypsa-training/bin/../lib/gurobi.lic
Restricted license - for non-production use only - expires 2025-11-24

Gurobi 11.0.0 (linux64, gurobi_cl) logging started Fri Oct 31 11:31:26 2025

Set parameter LogFile to value "gurobi.log"
Using license file /trinity/home/thomgeo/.conda/envs/pypsa-training/bin/../lib/gurobi.lic
Restricted license - for non-production use only - expires 2025-11-24

Gurobi 11.0.0 (linux64, gurobi_cl) logging started Fri Oct 31 11:31:26 2025

Set parameter LogFile to value "gurobi.log"
Using license file /trinity/home/thomgeo/.conda/envs/pypsa-training/bin/../lib/gurobi.lic
Restricted license - for non-production use only - expires 2025-11-24

Gurobi 11.0.0 (linux64, gurobi_cl) logging started Fri Oct 31 11:32:31 2025

Set parameter LogFile to value "gurobi.log"
Using license file /trinity/home/thomgeo/.conda/envs/pypsa-training/bin/../lib/gurobi.lic
Restricted license - for non-production use only - expires 2025-11-24

Gurobi 11.0.0 (linux64, gurobi_cl) logging started Fri Oct 31 11:32:31 2025

Set parameter LogFile to value "gurobi.log"
Using license file /trinity/home/thomgeo/.conda/envs/pypsa-training/bin/../lib/gurobi.lic
Restricted license - for non-production use only - expires 2025-11-24

Gurobi 11.0.0 (linux64, gurobi_cl) logging started Fri Oct 31 11:32:33 2025

Set parameter LogFile to value "gurobi.log"
Using license file /trinity/home/thomgeo/.conda/envs/pypsa-training/bin/../lib/gurobi.lic
Restricted license - for non-production use only - expires 2025-11-24

Gurobi 11.0.0 (linux64, gurobi_cl) logging started Fri Oct 31 11:41:38 2025

Set parameter LogFile to value "gurobi.log"
Using license file /trinity/home/thomgeo/.conda/envs/pypsa-training/bin/../lib/gurobi.lic
Restricted license - for non-production use only - expires 2025-11-24

Gurobi 11.0.0 (linux64, gurobi_cl) logging started Fri Oct 31 11:41:38 2025

Set parameter LogFile to value "gurobi.log"
Using license file /trinity/home/thomgeo/.conda/envs/pypsa-training/bin/../lib/gurobi.lic
Restricted license - for non-production use only - expires 2025-11-24

Gurobi 11.0.0 (linux64, gurobi_cl) logging started Fri Oct 31 11:41:39 2025

Set parameter LogFile to value "gurobi.log"
Using license file /trinity/home/thomgeo/.conda/envs/pypsa-training/bin/../lib/gurobi.lic
Restricted license - for non-production use only - expires 2025-11-24

Gurobi 11.0.0 (linux64, gurobi_cl) logging started Mon Nov  3 09:57:56 2025

Set parameter LogFile to value "gurobi.log"
Using license file /trinity/home/thomgeo/.conda/envs/pypsa-training/bin/../lib/gurobi.lic
Restricted license - for non-production use only - expires 2025-11-24

Gurobi 11.0.0 (linux64, gurobi_cl) logging started Mon Nov  3 09:57:56 2025

Set parameter LogFile to value "gurobi.log"
Using license file /trinity/home/thomgeo/.conda/envs/pypsa-training/bin/../lib/gurobi.lic
Restricted license - for non-production use only - expires 2025-11-24

Gurobi 11.0.0 (linux64, gurobi_cl) logging started Mon Nov  3 09:57:59 2025

Set parameter LogFile to value "gurobi.log"
Using license file /trinity/home/thomgeo/.conda/envs/pypsa-training/bin/../lib/gurobi.lic
Restricted license - for non-production use only - expires 2025-11-24

Gurobi 11.0.0 (linux64, gurobi_cl) logging started Mon Nov  3 13:44:15 2025

Set parameter LogFile to value "gurobi.log"
Using license file /trinity/home/thomgeo/.conda/envs/pypsa-training/bin/../lib/gurobi.lic
Restricted license - for non-production use only - expires 2025-11-24

Gurobi 11.0.0 (linux64, gurobi_cl) logging started Mon Nov  3 13:44:15 2025

Set parameter LogFile to value "gurobi.log"
Using license file /trinity/home/thomgeo/.conda/envs/pypsa-training/bin/../lib/gurobi.lic
Restricted license - for non-production use only - expires 2025-11-24

Gurobi 11.0.0 (linux64, gurobi_cl) logging started Mon Nov  3 13:44:20 2025

Set parameter LogFile to value "gurobi.log"
Using license file /trinity/home/thomgeo/.conda/envs/pypsa-training/bin/../lib/gurobi.lic
Restricted license - for non-production use only - expires 2025-11-24

Gurobi 11.0.0 (linux64, gurobi_cl) logging started Mon Nov  3 13:44:20 2025

Set parameter LogFile to value "gurobi.log"
Using license file /trinity/home/thomgeo/.conda/envs/pypsa-training/bin/../lib/gurobi.lic
Restricted license - for non-production use only - expires 2025-11-24

Gurobi 11.0.0 (linux64, gurobi_cl) logging started Mon Nov  3 13:44:21 2025


Gurobi 11.0.0 (linux64, gurobi_cl) logging started Mon Nov  3 13:44:21 2025

Set parameter LogFile to value "gurobi.log"
Using license file /trinity/home/thomgeo/.conda/envs/pypsa-training/bin/../lib/gurobi.lic
Restricted license - for non-production use only - expires 2025-11-24

Gurobi 11.0.0 (linux64, gurobi_cl) logging started Mon Nov  3 13:44:21 2025

Set parameter LogFile to value "gurobi.log"
Using license file /trinity/home/thomgeo/.conda/envs/pypsa-training/bin/../lib/gurobi.lic
Restricted license - for non-production use only - expires 2025-11-24
Set parameter LogFile to value "gurobi.log"
Using license file /trinity/home/thomgeo/.conda/envs/pypsa-training/bin/../lib/gurobi.lic
Restricted license - for non-production use only - expires 2025-11-24

Gurobi 11.0.0 (linux64, gurobi_cl) logging started Mon Nov  3 14:04:54 2025

Set parameter LogFile to value "gurobi.log"
Using license file /trinity/home/thomgeo/.conda/envs/pypsa-training/bin/../lib/gurobi.lic
Restricted license - for non-production use only - expires 2025-11-24

Gurobi 11.0.0 (linux64, gurobi_cl) logging started Mon Nov  3 14:04:54 2025

Set parameter LogFile to value "gurobi.log"
Using license file /trinity/home/thomgeo/.conda/envs/pypsa-training/bin/../lib/gurobi.lic
Restricted license - for non-production use only - expires 2025-11-24

Gurobi 11.0.0 (linux64, gurobi_cl) logging started Mon Nov  3 14:04:57 2025

Set parameter LogFile to value "gurobi.log"
Using license file /trinity/home/thomgeo/.conda/envs/pypsa-training/bin/../lib/gurobi.lic
Restricted license - for non-production use only - expires 2025-11-24

Gurobi 11.0.0 (linux64, gurobi_cl) logging started Mon Nov  3 14:04:57 2025

Set parameter LogFile to value "gurobi.log"
Using license file /trinity/home/thomgeo/.conda/envs/pypsa-training/bin/../lib/gurobi.lic
Restricted license - for non-production use only - expires 2025-11-24

Gurobi 11.0.0 (linux64, gurobi_cl) logging started Mon Nov  3 14:04:59 2025


Gurobi 11.0.0 (linux64, gurobi_cl) logging started Mon Nov  3 14:04:59 2025

Set parameter LogFile to value "gurobi.log"
Using license file /trinity/home/thomgeo/.conda/envs/pypsa-training/bin/../lib/gurobi.lic
Restricted license - for non-production use only - expires 2025-11-24

Gurobi 11.0.0 (linux64, gurobi_cl) logging started Mon Nov  3 14:04:59 2025

Set parameter LogFile to value "gurobi.log"
Using license file /trinity/home/thomgeo/.conda/envs/pypsa-training/bin/../lib/gurobi.lic
Restricted license - for non-production use only - expires 2025-11-24
Set parameter LogFile to value "gurobi.log"
Using license file /trinity/home/thomgeo/.conda/envs/pypsa-training/bin/../lib/gurobi.lic
Restricted license - for non-production use only - expires 2025-11-24

Gurobi 11.0.0 (linux64, gurobi_cl) logging started Tue Nov  4 15:19:07 2025

Set parameter LogFile to value "gurobi.log"
Using license file /trinity/home/thomgeo/.conda/envs/pypsa-training/bin/../lib/gurobi.lic
Restricted license - for non-production use only - expires 2025-11-24

Gurobi 11.0.0 (linux64, gurobi_cl) logging started Tue Nov  4 15:19:07 2025

Set parameter LogFile to value "gurobi.log"
Using license file /trinity/home/thomgeo/.conda/envs/pypsa-training/bin/../lib/gurobi.lic
Restricted license - for non-production use only - expires 2025-11-24

Gurobi 11.0.0 (linux64, gurobi_cl) logging started Tue Nov  4 15:19:11 2025

Set parameter LogFile to value "gurobi.log"
Using license file /trinity/home/thomgeo/.conda/envs/pypsa-training/bin/../lib/gurobi.lic
Restricted license - for non-production use only - expires 2025-11-24

Gurobi 11.0.0 (linux64, gurobi_cl) logging started Tue Nov  4 15:21:18 2025

Set parameter LogFile to value "gurobi.log"
Using license file /trinity/home/thomgeo/.conda/envs/pypsa-training/bin/../lib/gurobi.lic
Restricted license - for non-production use only - expires 2025-11-24

Gurobi 11.0.0 (linux64, gurobi_cl) logging started Tue Nov  4 15:21:18 2025

Set parameter LogFile to value "gurobi.log"
Using license file /trinity/home/thomgeo/.conda/envs/pypsa-training/bin/../lib/gurobi.lic
Restricted license - for non-production use only - expires 2025-11-24
